p cnf 1099
-12 -44
-13 -62
-14 1
-15 -80
-16 2
-17 3
-18 4
-19 -98
-20 5
-21 6
-22 7
-23 8
-24 9
-25 10
-26 11
-27 1
-27 -2
-1 2 27
-28 -1
-28 2
1 -2 28
-29 -27
-29 -28
27 28 29
-30 -4
-30 -29
4 29 30
-31 4
-31 29
-4 -29 31
-32 -30
-32 -31
30 31 32
-33 -5
-33 -32
5 32 33
-34 5
-34 32
-5 -32 34
-35 -33
-35 -34
33 34 35
-36 -7
-36 -35
7 35 36
-37 7
-37 35
-7 -35 37
-38 -36
-38 -37
36 37 38
-39 -9
-39 -38
9 38 39
-40 9
-40 38
-9 -38 40
-41 -39
-41 -40
39 40 41
-42 -11
-42 -41
11 41 42
-43 11
-43 41
-11 -41 43
-44 -42
-44 -43
42 43 44
-45 1
-45 -3
-1 3 45
-46 -1
-46 3
1 -3 46
-47 -45
-47 -46
45 46 47
-48 -4
-48 -47
4 47 48
-49 4
-49 47
-4 -47 49
-50 -48
-50 -49
48 49 50
-51 -6
-51 -50
6 50 51
-52 6
-52 50
-6 -50 52
-53 -51
-53 -52
51 52 53
-54 -7
-54 -53
7 53 54
-55 7
-55 53
-7 -53 55
-56 -54
-56 -55
54 55 56
-57 -10
-57 -56
10 56 57
-58 10
-58 56
-10 -56 58
-59 -57
-59 -58
57 58 59
-60 -11
-60 -59
11 59 60
-61 11
-61 59
-11 -59 61
-62 -60
-62 -61
60 61 62
-63 2
-63 -3
-2 3 63
-64 -2
-64 3
2 -3 64
-65 -63
-65 -64
63 64 65
-66 -4
-66 -65
4 65 66
-67 4
-67 65
-4 -65 67
-68 -66
-68 -67
66 67 68
-69 -8
-69 -68
8 68 69
-70 8
-70 68
-8 -68 70
-71 -69
-71 -70
69 70 71
-72 -9
-72 -71
9 71 72
-73 9
-73 71
-9 -71 73
-74 -72
-74 -73
72 73 74
-75 -10
-75 -74
10 74 75
-76 10
-76 74
-10 -74 76
-77 -75
-77 -76
75 76 77
-78 -11
-78 -77
11 77 78
-79 11
-79 77
-11 -77 79
-80 -78
-80 -79
78 79 80
-81 5
-81 -6
-5 6 81
-82 -5
-82 6
5 -6 82
-83 -81
-83 -82
81 82 83
-84 -7
-84 -83
7 83 84
-85 7
-85 83
-7 -83 85
-86 -84
-86 -85
84 85 86
-87 -8
-87 -86
8 86 87
-88 8
-88 86
-8 -86 88
-89 -87
-89 -88
87 88 89
-90 -9
-90 -89
9 89 90
-91 9
-91 89
-9 -89 91
-92 -90
-92 -91
90 91 92
-93 -10
-93 -92
10 92 93
-94 10
-94 92
-10 -92 94
-95 -93
-95 -94
93 94 95
-96 -11
-96 -95
11 95 96
-97 11
-97 95
-11 -95 97
-98 -96
-98 -97
96 97 98
-99 -12
-99 -44
12 44 99
-100 12
-100 44
-12 -44 100
-101 -99
-101 -100
99 100 101
-102 -13
-102 -62
13 62 102
-103 13
-103 62
-13 -62 103
-104 -102
-104 -103
102 103 104
-105 1
-105 -14
-1 14 105
-106 -1
-106 14
1 -14 106
-107 -105
-107 -106
105 106 107
-108 -15
-108 -80
15 80 108
-109 15
-109 80
-15 -80 109
-110 -108
-110 -109
108 109 110
-111 2
-111 -16
-2 16 111
-112 -2
-112 16
2 -16 112
-113 -111
-113 -112
111 112 113
-114 3
-114 -17
-3 17 114
-115 -3
-115 17
3 -17 115
-116 -114
-116 -115
114 115 116
-117 4
-117 -18
-4 18 117
-118 -4
-118 18
4 -18 118
-119 -117
-119 -118
117 118 119
-120 -19
-120 -98
19 98 120
-121 19
-121 98
-19 -98 121
-122 -120
-122 -121
120 121 122
-123 5
-123 -20
-5 20 123
-124 -5
-124 20
5 -20 124
-125 -123
-125 -124
123 124 125
-126 6
-126 -21
-6 21 126
-127 -6
-127 21
6 -21 127
-128 -126
-128 -127
126 127 128
-129 7
-129 -22
-7 22 129
-130 -7
-130 22
7 -22 130
-131 -129
-131 -130
129 130 131
-132 8
-132 -23
-8 23 132
-133 -8
-133 23
8 -23 133
-134 -132
-134 -133
132 133 134
-135 9
-135 -24
-9 24 135
-136 -9
-136 24
9 -24 136
-137 -135
-137 -136
135 136 137
-138 10
-138 -25
-10 25 138
-139 -10
-139 25
10 -25 139
-140 -138
-140 -139
138 139 140
-141 11
-141 -26
-11 26 141
-142 -11
-142 26
11 -26 142
-143 -141
-143 -142
141 142 143
-144 -101
-144 104
101 -104 144
-145 101
-145 -104
-101 104 145
-146 -144
-146 -145
144 145 146
-147 -101
-147 -104
101 104 147
-148 107
-148 -146
-107 146 148
-149 -107
-149 146
107 -146 149
-150 -148
-150 -149
148 149 150
-151 -107
-151 -146
107 146 151
-152 147
-152 -151
-147 151 152
-153 -147
-153 151
147 -151 153
-154 -152
-154 -153
152 153 154
-155 147
-155 151
-147 -151 155
-156 110
-156 -150
-110 150 156
-157 -110
-157 150
110 -150 157
-158 -156
-158 -157
156 157 158
-159 -110
-159 -150
110 150 159
-160 -155
-160 -158
155 158 160
-161 155
-161 158
-155 -158 161
-162 -160
-162 -161
160 161 162
-163 155
-163 -158
-155 158 163
-164 -159
-164 -163
159 163 164
-165 -154
-165 164
154 -164 165
-166 154
-166 -164
-154 164 166
-167 -165
-167 -166
165 166 167
-168 -154
-168 -164
154 164 168
-169 113
-169 -162
-113 162 169
-170 -113
-170 162
113 -162 170
-171 -169
-171 -170
169 170 171
-172 -113
-172 -162
113 162 172
-173 -167
-173 -172
167 172 173
-174 167
-174 172
-167 -172 174
-175 -173
-175 -174
173 174 175
-176 -167
-176 172
167 -172 176
-177 168
-177 -176
-168 176 177
-178 -168
-178 176
168 -176 178
-179 -177
-179 -178
177 178 179
-180 168
-180 176
-168 -176 180
-181 116
-181 -171
-116 171 181
-182 -116
-182 171
116 -171 182
-183 -181
-183 -182
181 182 183
-184 -116
-184 -171
116 171 184
-185 -180
-185 -183
180 183 185
-186 180
-186 183
-180 -183 186
-187 -185
-187 -186
185 186 187
-188 180
-188 -183
-180 183 188
-189 -184
-189 -188
184 188 189
-190 -175
-190 189
175 -189 190
-191 175
-191 -189
-175 189 191
-192 -190
-192 -191
190 191 192
-193 -175
-193 -189
175 189 193
-194 -179
-194 -193
179 193 194
-195 179
-195 193
-179 -193 195
-196 -194
-196 -195
194 195 196
-197 -179
-197 193
179 -193 197
-198 119
-198 -187
-119 187 198
-199 -119
-199 187
119 -187 199
-200 -198
-200 -199
198 199 200
-201 -119
-201 -187
119 187 201
-202 -197
-202 -200
197 200 202
-203 197
-203 200
-197 -200 203
-204 -202
-204 -203
202 203 204
-205 197
-205 -200
-197 200 205
-206 -201
-206 -205
201 205 206
-207 -192
-207 206
192 -206 207
-208 192
-208 -206
-192 206 208
-209 -207
-209 -208
207 208 209
-210 -192
-210 -206
192 206 210
-211 -196
-211 -210
196 210 211
-212 196
-212 210
-196 -210 212
-213 -211
-213 -212
211 212 213
-214 -196
-214 210
196 -210 214
-215 122
-215 -204
-122 204 215
-216 -122
-216 204
122 -204 216
-217 -215
-217 -216
215 216 217
-218 -122
-218 -204
122 204 218
-219 -214
-219 -217
214 217 219
-220 214
-220 217
-214 -217 220
-221 -219
-221 -220
219 220 221
-222 214
-222 -217
-214 217 222
-223 -218
-223 -222
218 222 223
-224 -209
-224 223
209 -223 224
-225 209
-225 -223
-209 223 225
-226 -224
-226 -225
224 225 226
-227 -209
-227 -223
209 223 227
-228 -213
-228 -227
213 227 228
-229 213
-229 227
-213 -227 229
-230 -228
-230 -229
228 229 230
-231 -213
-231 227
213 -227 231
-232 125
-232 -221
-125 221 232
-233 -125
-233 221
125 -221 233
-234 -232
-234 -233
232 233 234
-235 -125
-235 -221
125 221 235
-236 -226
-236 -235
226 235 236
-237 226
-237 235
-226 -235 237
-238 -236
-238 -237
236 237 238
-239 -226
-239 235
226 -235 239
-240 -230
-240 -239
230 239 240
-241 230
-241 239
-230 -239 241
-242 -240
-242 -241
240 241 242
-243 -230
-243 239
230 -239 243
-244 231
-244 -243
-231 243 244
-245 -231
-245 243
231 -243 245
-246 -244
-246 -245
244 245 246
-247 231
-247 243
-231 -243 247
-248 128
-248 -234
-128 234 248
-249 -128
-249 234
128 -234 249
-250 -248
-250 -249
248 249 250
-251 -128
-251 -234
128 234 251
-252 -247
-252 -250
247 250 252
-253 247
-253 250
-247 -250 253
-254 -252
-254 -253
252 253 254
-255 247
-255 -250
-247 250 255
-256 -251
-256 -255
251 255 256
-257 -238
-257 256
238 -256 257
-258 238
-258 -256
-238 256 258
-259 -257
-259 -258
257 258 259
-260 -238
-260 -256
238 256 260
-261 -242
-261 -260
242 260 261
-262 242
-262 260
-242 -260 262
-263 -261
-263 -262
261 262 263
-264 -242
-264 260
242 -260 264
-265 -246
-265 -264
246 264 265
-266 246
-266 264
-246 -264 266
-267 -265
-267 -266
265 266 267
-268 -246
-268 264
246 -264 268
-269 131
-269 -254
-131 254 269
-270 -131
-270 254
131 -254 270
-271 -269
-271 -270
269 270 271
-272 -131
-272 -254
131 254 272
-273 -268
-273 -271
268 271 273
-274 268
-274 271
-268 -271 274
-275 -273
-275 -274
273 274 275
-276 268
-276 -271
-268 271 276
-277 -272
-277 -276
272 276 277
-278 -259
-278 277
259 -277 278
-279 259
-279 -277
-259 277 279
-280 -278
-280 -279
278 279 280
-281 -259
-281 -277
259 277 281
-282 -263
-282 -281
263 281 282
-283 263
-283 281
-263 -281 283
-284 -282
-284 -283
282 283 284
-285 -263
-285 281
263 -281 285
-286 -267
-286 -285
267 285 286
-287 267
-287 285
-267 -285 287
-288 -286
-288 -287
286 287 288
-289 -267
-289 285
267 -285 289
-290 134
-290 -275
-134 275 290
-291 -134
-291 275
134 -275 291
-292 -290
-292 -291
290 291 292
-293 -134
-293 -275
134 275 293
-294 -289
-294 -292
289 292 294
-295 289
-295 292
-289 -292 295
-296 -294
-296 -295
294 295 296
-297 289
-297 -292
-289 292 297
-298 -293
-298 -297
293 297 298
-299 -280
-299 298
280 -298 299
-300 280
-300 -298
-280 298 300
-301 -299
-301 -300
299 300 301
-302 -280
-302 -298
280 298 302
-303 -284
-303 -302
284 302 303
-304 284
-304 302
-284 -302 304
-305 -303
-305 -304
303 304 305
-306 -284
-306 302
284 -302 306
-307 -288
-307 -306
288 306 307
-308 288
-308 306
-288 -306 308
-309 -307
-309 -308
307 308 309
-310 -288
-310 306
288 -306 310
-311 137
-311 -296
-137 296 311
-312 -137
-312 296
137 -296 312
-313 -311
-313 -312
311 312 313
-314 -137
-314 -296
137 296 314
-315 -310
-315 -313
310 313 315
-316 310
-316 313
-310 -313 316
-317 -315
-317 -316
315 316 317
-318 310
-318 -313
-310 313 318
-319 -314
-319 -318
314 318 319
-320 -301
-320 319
301 -319 320
-321 301
-321 -319
-301 319 321
-322 -320
-322 -321
320 321 322
-323 -301
-323 -319
301 319 323
-324 -305
-324 -323
305 323 324
-325 305
-325 323
-305 -323 325
-326 -324
-326 -325
324 325 326
-327 -305
-327 323
305 -323 327
-328 -309
-328 -327
309 327 328
-329 309
-329 327
-309 -327 329
-330 -328
-330 -329
328 329 330
-331 -309
-331 327
309 -327 331
-332 140
-332 -317
-140 317 332
-333 -140
-333 317
140 -317 333
-334 -332
-334 -333
332 333 334
-335 -140
-335 -317
140 317 335
-336 -331
-336 -334
331 334 336
-337 331
-337 334
-331 -334 337
-338 -336
-338 -337
336 337 338
-339 331
-339 -334
-331 334 339
-340 -335
-340 -339
335 339 340
-341 -322
-341 340
322 -340 341
-342 322
-342 -340
-322 340 342
-343 -341
-343 -342
341 342 343
-344 -322
-344 -340
322 340 344
-345 -326
-345 -344
326 344 345
-346 326
-346 344
-326 -344 346
-347 -345
-347 -346
345 346 347
-348 -326
-348 344
326 -344 348
-349 -330
-349 -348
330 348 349
-350 330
-350 348
-330 -348 350
-351 -349
-351 -350
349 350 351
-352 -330
-352 348
330 -348 352
-353 143
-353 -338
-143 338 353
-354 -143
-354 338
143 -338 354
-355 -353
-355 -354
353 354 355
-356 -143
-356 -338
143 338 356
-357 -352
-357 -355
352 355 357
-358 352
-358 355
-352 -355 358
-359 -357
-359 -358
357 358 359
-360 352
-360 -355
-352 355 360
-361 -356
-361 -360
356 360 361
-362 -343
-362 361
343 -361 362
-363 343
-363 -361
-343 361 363
-364 -362
-364 -363
362 363 364
-365 -343
-365 -361
343 361 365
-366 -347
-366 -365
347 365 366
-367 347
-367 365
-347 -365 367
-368 -366
-368 -367
366 367 368
-369 -347
-369 365
347 -365 369
-370 -351
-370 -369
351 369 370
-371 351
-371 369
-351 -369 371
-372 -370
-372 -371
370 371 372
-373 -351
-373 369
351 -369 373
-374 368
-374 372
-368 -372 374
-375 -359
-375 -364
359 364 375
-376 374
-376 -375
-374 375 376
-377 107
-377 113
-107 -113 377
-378 116
-378 119
-116 -119 378
-379 125
-379 128
-125 -128 379
-380 131
-380 134
-131 -134 380
-381 137
-381 140
-137 -140 381
-382 377
-382 378
-377 -378 382
-383 379
-383 380
-379 -380 383
-384 143
-384 381
-143 -381 384
-385 382
-385 383
-382 -383 385
-386 384
-386 385
-384 -385 386
-387 376
-387 -386
-376 386 387
387
